proyfinal/src/viki/013/experimentInOfficeAgust.take6.output/ef9f50b6-b91c-47a5-935f-cc3f74c7cbaf.als.dat
{'cnf.clauses': '118081',
 'cnf.totvars': '69608',
 'conflict literals': '6',
 'conflicts': '6',
 'decisions': '3320',
 'memused.mb': '14.75',
 'outcome': 'UNSAT',
 'propagations': '24166',
 'restarts': '1',
 'solver.msecs': 34,
 'task.msecs': 85}
