proyfinal/src/viki/013/experimentInOfficeAgust.take6.output/ef9f50b6-b91c-47a5-935f-cc3f74c7cbaf.als.out
Reading from standard input... Use '--help' for help.
============================[ Problem Statistics ]=============================
|                                                                             |
|  Number of variables:         69608                                         |
|  Number of clauses:          118081                                         |
|  Parse time:                   0.03 s                                       |
|                                                                             |
============================[ Search Statistics ]==============================
| Conflicts |          ORIGINAL         |          LEARNT          | Progress |
|           |    Vars  Clauses Literals |    Limit  Clauses Lit/Cl |          |
===============================================================================
===============================================================================
restarts              : 1
conflicts             : 6              (173 /sec)
decisions             : 3320           (0.00 % random) (95840 /sec)
propagations          : 24166          (697613 /sec)
conflict literals     : 6              (0.00 % deleted)
Memory used           : 14.75 MB
CPU time              : 0.034641 s

UNSATISFIABLE
